c t mc
c file mc2024_track1_061.cnf
p cnf 90 234
58 22 68 0
-44 -58 -20 0
40 43 38 0
-88 -38 21 0
-78 6 -1 0
-69 -72 -33 0
9 -39 -70 0
-44 49 -74 0
-86 34 -75 0
-70 68 -14 0
-10 57 59 0
-88 -86 11 0
-59 -9 -13 0
41 49 52 0
-88 27 -22 0
12 -50 20 0
45 60 77 0
-66 -73 29 0
-41 84 -40 0
-67 -38 -73 0
-64 -80 -55 0
-48 30 39 0
34 -74 -18 0
87 -13 49 0
-32 -1 -12 0
13 -87 51 0
72 -63 -52 0
30 -64 -69 0
53 84 52 0
37 -83 57 0
-2 -48 -58 0
-41 -40 -86 0
-50 28 -85 0
90 -3 -30 0
84 -13 65 0
49 78 -74 0
-64 35 -5 0
-79 -17 69 0
-62 73 -67 0
-8 -7 -67 0
11 15 -23 0
-63 76 77 0
-16 -75 -79 0
-38 10 -15 0
62 66 -44 0
-36 29 -90 0
-22 27 -69 0
45 -4 -74 0
-51 -64 -18 0
4 -36 6 0
-75 -58 36 0
33 -15 -35 0
61 49 43 0
19 82 -75 0
79 -83 -25 0
22 -9 78 0
-12 35 65 0
-24 80 -86 0
-41 -11 5 0
-85 31 -48 0
-23 -25 -80 0
89 -46 18 0
-18 -80 77 0
-45 7 -50 0
15 81 82 0
88 -14 -16 0
-5 -76 34 0
17 -23 -50 0
63 24 -9 0
2 -12 50 0
-60 53 -17 0
44 -13 -52 0
-21 39 -11 0
-63 -56 -76 0
26 22 -79 0
54 28 -60 0
15 84 11 0
31 -21 -87 0
-76 48 24 0
66 69 -47 0
-82 56 -86 0
85 -29 24 0
7 81 90 0
-44 -76 -19 0
-2 75 77 0
80 52 41 0
-5 -28 55 0
49 19 48 0
67 -17 -42 0
54 35 -14 0
-41 77 -79 0
18 -62 38 0
40 -25 -32 0
47 -63 14 0
14 -67 -3 0
72 -12 40 0
63 80 23 0
-46 -4 -28 0
10 -88 -9 0
-4 -29 85 0
68 -26 2 0
45 -15 -40 0
16 66 37 0
45 43 31 0
-26 -3 -17 0
82 -27 6 0
27 -59 31 0
2 28 16 0
-39 31 20 0
62 83 45 0
-71 -6 89 0
74 84 -79 0
-71 -59 1 0
61 11 41 0
3 1 31 0
54 -58 -81 0
-35 82 -68 0
-34 -44 -54 0
-69 65 -90 0
20 71 7 0
-75 -70 51 0
-72 -33 -67 0
7 55 -28 0
-64 -30 1 0
5 68 56 0
-24 21 -86 0
66 -26 81 0
-49 46 26 0
2 55 -34 0
6 -51 -35 0
-77 39 46 0
51 20 -31 0
89 85 59 0
19 -22 -70 0
15 -56 47 0
56 7 12 0
57 27 -1 0
-21 37 84 0
-16 -4 83 0
32 17 57 0
-60 -36 10 0
-33 -12 -23 0
82 37 -84 0
-42 66 78 0
-78 79 84 0
-18 89 -27 0
-5 -48 -68 0
22 -46 37 0
-55 -3 28 0
-27 50 -3 0
-70 -82 89 0
79 -85 54 0
26 -51 -2 0
32 -75 78 0
65 72 8 0
60 48 -28 0
-35 74 -32 0
53 -61 60 0
-90 -6 -51 0
81 83 76 0
33 7 -30 0
-52 6 8 0
-14 33 -71 0
10 -37 -76 0
26 42 -63 0
-67 -16 -57 0
-87 81 71 0
-53 -42 24 0
42 -30 6 0
4 39 -55 0
-90 40 -25 0
-50 64 21 0
-74 14 37 0
8 -62 34 0
-36 13 -88 0
65 -58 -62 0
-61 49 -14 0
-15 32 37 0
-59 -19 -13 0
-4 -45 -47 0
-48 9 69 0
-43 10 25 0
-52 -17 -30 0
-87 -4 90 0
43 -55 21 0
65 -58 -54 0
-41 20 16 0
-29 -73 -61 0
36 -58 -47 0
72 70 26 0
65 88 -9 0
-35 63 -81 0
2 36 53 0
57 -32 -53 0
-30 -89 -17 0
-33 80 74 0
46 53 -82 0
13 -73 -59 0
-87 62 19 0
22 -47 -29 0
73 75 -76 0
-33 10 56 0
19 83 64 0
42 -23 86 0
51 -68 -73 0
90 -73 78 0
-70 -38 -64 0
87 11 39 0
-36 -77 -44 0
-7 57 54 0
68 -42 55 0
-70 -45 -53 0
44 3 -1 0
-71 19 -8 0
-69 -5 -66 0
-59 -83 38 0
60 -32 -78 0
8 39 -12 0
-16 -18 -67 0
38 89 -20 0
-34 -42 -61 0
-87 56 47 0
52 -24 21 0
81 -34 -43 0
-25 23 -1 0
-5 72 -85 0
29 -88 -3 0
29 71 61 0
-85 -46 47 0
-66 56 -25 0
-8 24 83 0
-77 31 57 0
-23 61 80 0
-43 9 -10 0
